s td 39 22 60
b 1 16 35 44 58
b 2 1 7 9 14 15 19 20 21 26 27 30 33 38 39 40 44 46 50 53 56 59
b 3 2 7 9 14 15 19 20 21 26 27 30 33 38 39 40 41 44 46 50 53 56 59
b 4 2 7 9 13 14 15 26 27 38 39 40 41 44 56 59
b 5 7 9 13 14 15 18 27 38 39 40 41 44 59
b 6 7 8 9 14 15 18 38 39 40 41 44 59
b 7 4 8 15 38 40 59
b 8 7 8 9 14 37 44
b 9 2 9 14 15 19 20 21 26 27 29 30 33 39 40 41 44 46 50 53 56 59
b 10 2 9 14 15 19 20 21 26 27 29 30 33 39 41 44 46 49 50 53 56 59
b 11 2 9 14 19 20 26 27 28 29 30 33 39 41 44 46 49 50 53 56 59
b 12 2 9 14 19 20 27 28 29 33 36 39 41 44 46 49 50 53 56 59
b 13 2 9 14 20 27 28 29 36 44 49 50 52
b 14 2 9 14 20 25 28 29 44 49 50 52
b 15 9 20 25 29 44 54
b 16 5 25 44 54
b 17 9 10 19 28 33 36 39 46 53
b 18 2 9 14 19 20 27 29 33 36 39 41 43 46 49 50 59
b 19 14 27 32 36 41 43 46 49 59
b 20 14 27 32 36 43 45 46
b 21 2 9 19 20 29 33 34 39 43 46 50 59
b 22 2 9 29 33 34 39 43 50 51 59
b 23 14 15 21 23 29 49
b 24 6 14 19 21 26 29 33 46 53 56 59
b 25 6 29 31 33 46 53 56
b 26 11 19 40 41
b 27 1 7 9 15 19 20 21 26 27 30 33 38 39 40 42 44 46 50 53 56 59
b 28 1 7 9 19 20 21 26 27 30 33 38 39 40 42 44 46 48 50 53 56
b 29 1 7 17 20 21 26 27 30 33 42 46 48 50 53
b 30 1 3 7 17 20 21 27 33 42 46 48 50 53
b 31 1 3 7 12 17 20 33 42 46 48 50 53
b 32 3 7 12 17 20 22 33 42 46 50 53
b 33 7 17 20 22 24 33 42 46 50
b 34 1 3 17 27 33 42 48 53 57
b 35 17 33 47 57
b 36 9 19 20 21 27 30 38 39 40 42 44 48 56 58
b 37 9 19 20 21 30 39 40 44 48 56 58 60
b 38 9 21 35 39 40 44 48 56 58 60
b 39 7 19 21 33 40 48 55
1 38
2 3
2 27
3 4
3 9
3 26
4 5
5 6
6 7
6 8
9 10
9 24
10 11
10 23
11 12
12 13
12 17
12 18
13 14
14 15
15 16
18 19
18 21
19 20
21 22
24 25
27 28
28 29
28 36
28 39
29 30
30 31
30 34
31 32
32 33
34 35
36 37
37 38
